(declare-fun temp816_1 () (_ BitVec 64))
(declare-fun temp816_2 () (_ BitVec 64))
(declare-fun var70396 () (_ BitVec 64))
(declare-fun k!0 () Bool)
(declare-fun ARGNAME_x_NAMEEND_DIM () (_ BitVec 64))
(declare-fun temp816_3 () (_ BitVec 64))
(declare-fun var65762 () (_ BitVec 64))
(declare-fun temp816_4 () (_ BitVec 64))
(declare-fun temp816_5 () (_ BitVec 64))
(declare-fun ARGNAME_x_NAMEEND_DIMSIZE () (Array (_ BitVec 64) (_ BitVec 64)))
(declare-fun temp816_6 () (_ BitVec 64))
(declare-fun temp816_7 () (_ BitVec 64))
(declare-fun temp816_8 () (_ BitVec 64))
(declare-fun temp816_9 () (_ BitVec 64))
(declare-fun temp816_10 () (_ BitVec 64))
(declare-fun temp816_11 () (_ BitVec 64))
(declare-fun temp816_12 () (_ BitVec 64))
(declare-fun temp816_13 () (_ BitVec 64))
(declare-fun temp816_14 () (_ BitVec 64))
(declare-fun temp816_15 () (_ BitVec 64))
(declare-fun temp816_16 () (_ BitVec 64))
(declare-fun temp816_17 () (_ BitVec 64))
(declare-fun temp816_18 () (_ BitVec 64))
(declare-fun temp816_19 () (_ BitVec 64))
(declare-fun temp816_20 () (_ BitVec 64))
(declare-fun temp816_21 () (_ BitVec 64))
(declare-fun temp816_22 () (_ BitVec 64))
(declare-fun temp816_23 () (_ BitVec 64))
(declare-fun temp816_24 () (_ BitVec 64))
(declare-fun var70398 () (_ BitVec 64))
(declare-fun temp816_25 () (_ BitVec 64))
(declare-fun temp816_26 () (_ BitVec 64))
(declare-fun ARGNAME_y_NAMEEND_DIMSIZE () (Array (_ BitVec 64) (_ BitVec 64)))
(declare-fun temp816_27 () (_ BitVec 64))
(declare-fun temp816_28 () (_ BitVec 64))
(declare-fun temp816_29 () (_ BitVec 64))
(declare-fun temp816_30 () (_ BitVec 64))
(declare-fun temp816_31 () (_ BitVec 64))
(declare-fun temp816_32 () (_ BitVec 64))
(declare-fun temp816_33 () (_ BitVec 64))
(declare-fun temp816_34 () (_ BitVec 64))
(declare-fun temp816_35 () (_ BitVec 64))
(declare-fun temp816_36 () (_ BitVec 64))
(declare-fun temp816_37 () (_ BitVec 64))
(declare-fun temp816_38 () (_ BitVec 64))
(declare-fun temp816_39 () (_ BitVec 64))
(declare-fun temp816_40 () (_ BitVec 64))
(declare-fun temp816_41 () (_ BitVec 64))
(declare-fun temp816_42 () (_ BitVec 64))
(declare-fun temp816_43 () (_ BitVec 64))
(declare-fun var70374 () (_ BitVec 64))
(declare-fun ARGNAME_y_NAMEEND_DIM () (_ BitVec 64))
(declare-fun temp816_44 () (_ BitVec 64))
(declare-fun temp816_45 () (_ BitVec 64))
(declare-fun var70399 () (_ BitVec 64))
(declare-fun var70400 () (_ BitVec 64))
(declare-fun temp816_46 () (_ BitVec 64))
(declare-fun temp816_48 () (_ BitVec 64))
(declare-fun temp816_47 () (_ BitVec 64))
(declare-fun temp816_49 () (_ BitVec 64))
(declare-fun var526834 () (_ BitVec 64))
(declare-fun var526836 () (_ BitVec 64))
(declare-fun var592572 () (_ BitVec 64))
(declare-fun var658116 () (_ BitVec 64))
(declare-fun temp816_50 () (_ BitVec 64))
(declare-fun temp816_51 () (_ BitVec 64))
(declare-fun temp816_52 () (_ BitVec 64))
(declare-fun temp816_53 () (_ BitVec 64))
(declare-fun var70423 () (_ BitVec 64))
(declare-fun temp816_55 () (_ BitVec 64))
(declare-fun temp816_54 () (_ BitVec 64))
(declare-fun temp816_57 () (_ BitVec 64))
(declare-fun temp816_56 () (_ BitVec 64))
(declare-fun temp816_58 () (_ BitVec 64))
(declare-fun var2688294 () (_ BitVec 64))
(declare-fun temp816_60 () (_ BitVec 64))
(declare-fun temp816_59 () (_ BitVec 64))
(declare-fun temp816_61 () (_ BitVec 64))
(declare-fun var3212582 () (_ BitVec 64))
(declare-fun temp816_62 () (_ BitVec 64))
(declare-fun var3212616 () (_ BitVec 64))
(declare-fun temp816_63 () (_ BitVec 64))
(declare-fun var3212630 () (_ BitVec 64))
(declare-fun temp816_64 () (_ BitVec 64))
(declare-fun temp816_65 () (_ BitVec 64))
(assert (= temp816_1 #x0000000000000001))
(assert (= var70396
   (ite (= ARGNAME_x_NAMEEND_DIM temp816_1)
        #x0000000000000001
        #x0000000000000000)))
(assert (= temp816_2 #x0000000000000001))
(assert (= var70396 temp816_2))
(assert (= temp816_3 #x0000000000000000))
(assert (= var65762 temp816_3))
(assert (= temp816_4 #x0000000000000000))
(assert (= temp816_5 temp816_4))
(assert (= temp816_6 (select ARGNAME_x_NAMEEND_DIMSIZE temp816_5)))
(assert (= temp816_7 #x0000000000000001))
(assert (= temp816_8 temp816_7))
(assert (= temp816_9 (select ARGNAME_x_NAMEEND_DIMSIZE temp816_8)))
(assert (= temp816_10 #x0000000000000002))
(assert (= temp816_11 temp816_10))
(assert (= temp816_12 (select ARGNAME_x_NAMEEND_DIMSIZE temp816_11)))
(assert (= temp816_13 #x0000000000000003))
(assert (= temp816_14 temp816_13))
(assert (= temp816_15 (select ARGNAME_x_NAMEEND_DIMSIZE temp816_14)))
(assert (= temp816_16 #x0000000000000004))
(assert (= temp816_17 temp816_16))
(assert (= temp816_18 (select ARGNAME_x_NAMEEND_DIMSIZE temp816_17)))
(assert (= temp816_19 #x0000000000000005))
(assert (= temp816_20 temp816_19))
(assert (= temp816_21 (select ARGNAME_x_NAMEEND_DIMSIZE temp816_20)))
(assert (= temp816_22 #x0000000000000000))
(assert (= temp816_23
   (ite (bvslt var65762 temp816_22)
        (bvadd ARGNAME_x_NAMEEND_DIM var65762)
        var65762)))
(assert (= temp816_24 (select ARGNAME_x_NAMEEND_DIMSIZE temp816_23)))
(assert (= var70398 temp816_24))
(assert (bvslt (ite (bvslt var65762 temp816_22)
            (bvadd ARGNAME_x_NAMEEND_DIM var65762)
            var65762)
       ARGNAME_x_NAMEEND_DIM))
(assert (= temp816_25 #x0000000000000000))
(assert (= temp816_26 temp816_25))
(assert (= temp816_27 (select ARGNAME_y_NAMEEND_DIMSIZE temp816_26)))
(assert (= temp816_28 #x0000000000000001))
(assert (= temp816_29 temp816_28))
(assert (= temp816_30 (select ARGNAME_y_NAMEEND_DIMSIZE temp816_29)))
(assert (= temp816_31 #x0000000000000002))
(assert (= temp816_32 temp816_31))
(assert (= temp816_33 (select ARGNAME_y_NAMEEND_DIMSIZE temp816_32)))
(assert (= temp816_34 #x0000000000000003))
(assert (= temp816_35 temp816_34))
(assert (= temp816_36 (select ARGNAME_y_NAMEEND_DIMSIZE temp816_35)))
(assert (= temp816_37 #x0000000000000004))
(assert (= temp816_38 temp816_37))
(assert (= temp816_39 (select ARGNAME_y_NAMEEND_DIMSIZE temp816_38)))
(assert (= temp816_40 #x0000000000000005))
(assert (= temp816_41 temp816_40))
(assert (= temp816_42 (select ARGNAME_y_NAMEEND_DIMSIZE temp816_41)))
(assert (= temp816_43 #x0000000000000000))
(assert (= temp816_44
   (ite (bvslt var70374 temp816_43)
        (bvadd ARGNAME_y_NAMEEND_DIM var70374)
        var70374)))
(assert (= temp816_45 (select ARGNAME_y_NAMEEND_DIMSIZE temp816_44)))
(assert (= var70399 temp816_45))
(assert (bvslt (ite (bvslt var70374 temp816_43)
            (bvadd ARGNAME_y_NAMEEND_DIM var70374)
            var70374)
       ARGNAME_y_NAMEEND_DIM))
(assert (= var70400 (ite (= var70398 var70399) #x0000000000000001 #x0000000000000000)))
(assert (= temp816_46 #x0000000000000001))
(assert (= var70400 temp816_46))
(assert (= temp816_48 #x0000000000000001))
(assert (= temp816_47 temp816_48))
(assert (= temp816_49 #x0000000000000005))
(assert (= var526834 temp816_49))
(assert (= var526836 var526834))
(assert (= var592572 var526836))
(assert (= var658116 var592572))
(assert (= temp816_50 #x0000000000000000))
(assert (= var65762 temp816_50))
(assert (= temp816_51 #x0000000000000000))
(assert (= temp816_52
   (ite (bvslt var65762 temp816_51)
        (bvadd ARGNAME_x_NAMEEND_DIM var65762)
        var65762)))
(assert (= temp816_53 (select ARGNAME_x_NAMEEND_DIMSIZE temp816_52)))
(assert (= var70423 temp816_53))
(assert (bvslt (ite (bvslt var65762 temp816_51)
            (bvadd ARGNAME_x_NAMEEND_DIM var65762)
            var65762)
       ARGNAME_x_NAMEEND_DIM))
(assert (= temp816_55 #x0000000000000000))
(assert (= temp816_54 temp816_55))
(assert (= temp816_57 #xffffffffffffffff))
(assert (= temp816_56 temp816_57))
(assert (= temp816_58 #x0000000000000001))
(assert (= var2688294 temp816_58))
(assert (= temp816_60 #x0000000000000001))
(assert (= temp816_59 temp816_60))
(assert (= temp816_61 #x0000000000000001))
(assert (= var3212582 temp816_61))
(assert (= temp816_62 #x0000000000000000))
(assert (= var3212616 temp816_62))
(assert (= temp816_63 #x0000000000000000))
(assert (= var3212630 temp816_63))
(assert (= temp816_64 #x0000000000000000))
(assert (= var3212630 temp816_64))
(assert (= temp816_65 #x0000000000000000))
(assert (= var3212616 temp816_65))
(model-add temp816_1 () (_ BitVec 64) #x0000000000000001)
(model-add temp816_2 () (_ BitVec 64) #x0000000000000001)
(model-add var70396 () (_ BitVec 64) #x0000000000000001)
(model-del k!0)
(model-add ARGNAME_x_NAMEEND_DIM
           ()
           (_ BitVec 64)
           (ite k!0 #x0000000000000001 (bvnot #x0000000000000001)))




